p cnf 538 1571
-2 4 51 0
2 4 -51 0
-2 -4 -51 0
2 -4 51 0
5 -8 52 0
-5 -8 -52 0
5 8 -52 0
-5 8 52 0
10 11 53 0
-10 11 -53 0
10 -11 -53 0
-10 -11 53 0
-13 15 54 0
13 15 -54 0
-13 -15 -54 0
13 -15 54 0
-16 -17 55 0
16 -17 -55 0
-16 17 -55 0
16 17 55 0
-18 -23 56 0
18 -23 -56 0
-18 23 -56 0
18 23 56 0
-24 -27 57 0
24 -27 -57 0
-24 27 -57 0
24 27 57 0
29 30 58 0
-29 30 -58 0
29 -30 -58 0
-29 -30 58 0
-31 -32 59 0
31 -32 -59 0
-31 32 -59 0
31 32 59 0
33 34 60 0
-33 34 -60 0
33 -34 -60 0
-33 -34 60 0
-36 -38 61 0
36 -38 -61 0
-36 38 -61 0
36 38 61 0
40 41 62 0
-40 41 -62 0
40 -41 -62 0
-40 -41 62 0
43 -45 63 0
-43 -45 -63 0
43 45 -63 0
-43 45 63 0
47 -48 64 0
-47 -48 -64 0
47 48 -64 0
-47 48 64 0
50 -51 65 0
-50 -51 -65 0
50 51 -65 0
-50 51 65 0
52 -53 66 0
-52 -53 -66 0
52 53 -66 0
-52 53 66 0
54 -55 67 0
-54 -55 -67 0
54 55 -67 0
-54 55 67 0
56 -57 68 0
-56 -57 -68 0
56 57 -68 0
-56 57 68 0
58 -59 69 0
-58 -59 -69 0
58 59 -69 0
-58 59 69 0
60 -61 70 0
-60 -61 -70 0
60 61 -70 0
-60 61 70 0
62 -63 71 0
-62 -63 -71 0
62 63 -71 0
-62 63 71 0
64 -65 72 0
-64 -65 -72 0
64 65 -72 0
-64 65 72 0
66 -67 73 0
-66 -67 -73 0
66 67 -73 0
-66 67 73 0
68 -69 74 0
-68 -69 -74 0
68 69 -74 0
-68 69 74 0
70 -71 75 0
-70 -71 -75 0
70 71 -75 0
-70 71 75 0
72 -73 76 0
-72 -73 -76 0
72 73 -76 0
-72 73 76 0
74 -75 77 0
-74 -75 -77 0
74 75 -77 0
-74 75 77 0
76 77 0
-76 -77 0
-1 4 78 0
1 4 -78 0
-1 -4 -78 0
1 -4 78 0
-5 6 79 0
5 6 -79 0
-5 -6 -79 0
5 -6 79 0
-8 -9 80 0
8 -9 -80 0
-8 9 -80 0
8 9 80 0
-10 12 81 0
10 12 -81 0
-10 -12 -81 0
10 -12 81 0
-14 16 82 0
14 16 -82 0
-14 -16 -82 0
14 -16 82 0
-17 18 83 0
17 18 -83 0
-17 -18 -83 0
17 -18 83 0
-19 -20 84 0
19 -20 -84 0
-19 20 -84 0
19 20 84 0
-21 22 85 0
21 22 -85 0
-21 -22 -85 0
21 -22 85 0
-24 25 86 0
24 25 -86 0
-24 -25 -86 0
24 -25 86 0
-26 28 87 0
26 28 -87 0
-26 -28 -87 0
26 -28 87 0
-29 30 88 0
29 30 -88 0
-29 -30 -88 0
29 -30 88 0
31 -32 89 0
-31 -32 -89 0
31 32 -89 0
-31 32 89 0
37 38 90 0
-37 38 -90 0
37 -38 -90 0
-37 -38 90 0
-40 43 91 0
40 43 -91 0
-40 -43 -91 0
40 -43 91 0
-44 -45 92 0
44 -45 -92 0
-44 45 -92 0
44 45 92 0
77 -78 93 0
-77 -78 -93 0
77 78 -93 0
-77 78 93 0
79 -80 94 0
-79 -80 -94 0
79 80 -94 0
-79 80 94 0
81 -82 95 0
-81 -82 -95 0
81 82 -95 0
-81 82 95 0
83 -84 96 0
-83 -84 -96 0
83 84 -96 0
-83 84 96 0
85 -86 97 0
-85 -86 -97 0
85 86 -97 0
-85 86 97 0
87 -88 98 0
-87 -88 -98 0
87 88 -98 0
-87 88 98 0
89 -90 99 0
-89 -90 -99 0
89 90 -99 0
-89 90 99 0
91 -92 100 0
-91 -92 -100 0
91 92 -100 0
-91 92 100 0
93 -94 101 0
-93 -94 -101 0
93 94 -101 0
-93 94 101 0
95 -96 102 0
-95 -96 -102 0
95 96 -102 0
-95 96 102 0
97 -98 103 0
-97 -98 -103 0
97 98 -103 0
-97 98 103 0
99 -100 104 0
-99 -100 -104 0
99 100 -104 0
-99 100 104 0
101 -102 105 0
-101 -102 -105 0
101 102 -105 0
-101 102 105 0
103 -104 106 0
-103 -104 -106 0
103 104 -106 0
-103 104 106 0
105 106 0
-105 -106 0
1 3 107 0
-1 3 -107 0
1 -3 -107 0
-1 -3 107 0
5 -6 108 0
-5 -6 -108 0
5 6 -108 0
-5 6 108 0
11 -12 109 0
-11 -12 -109 0
11 12 -109 0
-11 12 109 0
15 16 110 0
-15 16 -110 0
15 -16 -110 0
-15 -16 110 0
17 -18 111 0
-17 -18 -111 0
17 18 -111 0
-17 18 111 0
-19 21 112 0
19 21 -112 0
-19 -21 -112 0
19 -21 112 0
-22 -23 113 0
22 -23 -113 0
-22 23 -113 0
22 23 113 0
24 -25 114 0
-24 -25 -114 0
24 25 -114 0
-24 25 114 0
-26 27 115 0
26 27 -115 0
-26 -27 -115 0
26 -27 115 0
-28 -29 116 0
28 -29 -116 0
-28 29 -116 0
28 29 116 0
30 -33 117 0
-30 -33 -117 0
30 33 -117 0
-30 33 117 0
-34 -35 118 0
34 -35 -118 0
-34 35 -118 0
34 35 118 0
41 -43 119 0
-41 -43 -119 0
41 43 -119 0
-41 43 119 0
-44 -45 120 0
44 -45 -120 0
-44 45 -120 0
44 45 120 0
106 -107 121 0
-106 -107 -121 0
106 107 -121 0
-106 107 121 0
108 -109 122 0
-108 -109 -122 0
108 109 -122 0
-108 109 122 0
110 -111 123 0
-110 -111 -123 0
110 111 -123 0
-110 111 123 0
112 -113 124 0
-112 -113 -124 0
112 113 -124 0
-112 113 124 0
114 -115 125 0
-114 -115 -125 0
114 115 -125 0
-114 115 125 0
116 -117 126 0
-116 -117 -126 0
116 117 -126 0
-116 117 126 0
118 -119 127 0
-118 -119 -127 0
118 119 -127 0
-118 119 127 0
120 -121 128 0
-120 -121 -128 0
120 121 -128 0
-120 121 128 0
122 -123 129 0
-122 -123 -129 0
122 123 -129 0
-122 123 129 0
124 -125 130 0
-124 -125 -130 0
124 125 -130 0
-124 125 130 0
126 -127 131 0
-126 -127 -131 0
126 127 -131 0
-126 127 131 0
128 -129 132 0
-128 -129 -132 0
128 129 -132 0
-128 129 132 0
130 -131 133 0
-130 -131 -133 0
130 131 -133 0
-130 131 133 0
132 133 0
-132 -133 0
-1 -3 134 0
1 -3 -134 0
-1 3 -134 0
1 3 134 0
-4 8 135 0
4 8 -135 0
-4 -8 -135 0
4 -8 135 0
-9 -10 136 0
9 -10 -136 0
-9 10 -136 0
9 10 136 0
11 12 137 0
-11 12 -137 0
11 -12 -137 0
-11 -12 137 0
14 15 138 0
-14 15 -138 0
14 -15 -138 0
-14 -15 138 0
16 17 139 0
-16 17 -139 0
16 -17 -139 0
-16 -17 139 0
-20 21 140 0
20 21 -140 0
-20 -21 -140 0
20 -21 140 0
24 25 141 0
-24 25 -141 0
24 -25 -141 0
-24 -25 141 0
27 -30 142 0
-27 -30 -142 0
27 30 -142 0
-27 30 142 0
33 35 143 0
-33 35 -143 0
33 -35 -143 0
-33 -35 143 0
-36 37 144 0
36 37 -144 0
-36 -37 -144 0
36 -37 144 0
38 -42 145 0
-38 -42 -145 0
38 42 -145 0
-38 42 145 0
-43 -45 146 0
43 -45 -146 0
-43 45 -146 0
43 45 146 0
-46 48 147 0
46 48 -147 0
-46 -48 -147 0
46 -48 147 0
134 -135 148 0
-134 -135 -148 0
134 135 -148 0
-134 135 148 0
136 -137 149 0
-136 -137 -149 0
136 137 -149 0
-136 137 149 0
138 -139 150 0
-138 -139 -150 0
138 139 -150 0
-138 139 150 0
140 -141 151 0
-140 -141 -151 0
140 141 -151 0
-140 141 151 0
142 -143 152 0
-142 -143 -152 0
142 143 -152 0
-142 143 152 0
144 -145 153 0
-144 -145 -153 0
144 145 -153 0
-144 145 153 0
146 -147 154 0
-146 -147 -154 0
146 147 -154 0
-146 147 154 0
148 -149 155 0
-148 -149 -155 0
148 149 -155 0
-148 149 155 0
150 -151 156 0
-150 -151 -156 0
150 151 -156 0
-150 151 156 0
152 -153 157 0
-152 -153 -157 0
152 153 -157 0
-152 153 157 0
154 -155 158 0
-154 -155 -158 0
154 155 -158 0
-154 155 158 0
156 -157 159 0
-156 -157 -159 0
156 157 -159 0
-156 157 159 0
158 159 0
-158 -159 0
-1 -3 160 0
1 -3 -160 0
-1 3 -160 0
1 3 160 0
-4 -5 161 0
4 -5 -161 0
-4 5 -161 0
4 5 161 0
6 11 162 0
-6 11 -162 0
6 -11 -162 0
-6 -11 162 0
-13 16 163 0
13 16 -163 0
-13 -16 -163 0
13 -16 163 0
-18 -19 164 0
18 -19 -164 0
-18 19 -164 0
18 19 164 0
23 25 165 0
-23 25 -165 0
23 -25 -165 0
-23 -25 165 0
26 -27 166 0
-26 -27 -166 0
26 27 -166 0
-26 27 166 0
-38 -41 167 0
38 -41 -167 0
-38 41 -167 0
38 41 167 0
-44 -45 168 0
44 -45 -168 0
-44 45 -168 0
44 45 168 0
-46 -47 169 0
46 -47 -169 0
-46 47 -169 0
46 47 169 0
159 -160 170 0
-159 -160 -170 0
159 160 -170 0
-159 160 170 0
161 -162 171 0
-161 -162 -171 0
161 162 -171 0
-161 162 171 0
163 -164 172 0
-163 -164 -172 0
163 164 -172 0
-163 164 172 0
165 -166 173 0
-165 -166 -173 0
165 166 -173 0
-165 166 173 0
167 -168 174 0
-167 -168 -174 0
167 168 -174 0
-167 168 174 0
169 -170 175 0
-169 -170 -175 0
169 170 -175 0
-169 170 175 0
171 -172 176 0
-171 -172 -176 0
171 172 -176 0
-171 172 176 0
173 -174 177 0
-173 -174 -177 0
173 174 -177 0
-173 174 177 0
-175 -176 177 0
175 -176 -177 0
-175 176 -177 0
175 176 177 0
-3 -5 178 0
3 -5 -178 0
-3 5 -178 0
3 5 178 0
6 7 179 0
-6 7 -179 0
6 -7 -179 0
-6 -7 179 0
-8 10 180 0
8 10 -180 0
-8 -10 -180 0
8 -10 180 0
11 -13 181 0
-11 -13 -181 0
11 13 -181 0
-11 13 181 0
-14 -17 182 0
14 -17 -182 0
-14 17 -182 0
14 17 182 0
-19 -20 183 0
19 -20 -183 0
-19 20 -183 0
19 20 183 0
-24 -26 184 0
24 -26 -184 0
-24 26 -184 0
24 26 184 0
29 30 185 0
-29 30 -185 0
29 -30 -185 0
-29 -30 185 0
-31 32 186 0
31 32 -186 0
-31 -32 -186 0
31 -32 186 0
34 -35 187 0
-34 -35 -187 0
34 35 -187 0
-34 35 187 0
38 -40 188 0
-38 -40 -188 0
38 40 -188 0
-38 40 188 0
-42 43 189 0
42 43 -189 0
-42 -43 -189 0
42 -43 189 0
-45 -47 190 0
45 -47 -190 0
-45 47 -190 0
45 47 190 0
-49 50 191 0
49 50 -191 0
-49 -50 -191 0
49 -50 191 0
178 -179 192 0
-178 -179 -192 0
178 179 -192 0
-178 179 192 0
180 -181 193 0
-180 -181 -193 0
180 181 -193 0
-180 181 193 0
182 -183 194 0
-182 -183 -194 0
182 183 -194 0
-182 183 194 0
184 -185 195 0
-184 -185 -195 0
184 185 -195 0
-184 185 195 0
186 -187 196 0
-186 -187 -196 0
186 187 -196 0
-186 187 196 0
188 -189 197 0
-188 -189 -197 0
188 189 -197 0
-188 189 197 0
190 -191 198 0
-190 -191 -198 0
190 191 -198 0
-190 191 198 0
192 -193 199 0
-192 -193 -199 0
192 193 -199 0
-192 193 199 0
194 -195 200 0
-194 -195 -200 0
194 195 -200 0
-194 195 200 0
196 -197 201 0
-196 -197 -201 0
196 197 -201 0
-196 197 201 0
198 -199 202 0
-198 -199 -202 0
198 199 -202 0
-198 199 202 0
200 -201 203 0
-200 -201 -203 0
200 201 -203 0
-200 201 203 0
202 203 0
-202 -203 0
-1 2 204 0
1 2 -204 0
-1 -2 -204 0
1 -2 204 0
5 8 205 0
-5 8 -205 0
5 -8 -205 0
-5 -8 205 0
11 13 206 0
-11 13 -206 0
11 -13 -206 0
-11 -13 206 0
16 -18 207 0
-16 -18 -207 0
16 18 -207 0
-16 18 207 0
-19 20 208 0
19 20 -208 0
-19 -20 -208 0
19 -20 208 0
-22 25 209 0
22 25 -209 0
-22 -25 -209 0
22 -25 209 0
-27 31 210 0
27 31 -210 0
-27 -31 -210 0
27 -31 210 0
-32 -34 211 0
32 -34 -211 0
-32 34 -211 0
32 34 211 0
-35 36 212 0
35 36 -212 0
-35 -36 -212 0
35 -36 212 0
37 -41 213 0
-37 -41 -213 0
37 41 -213 0
-37 41 213 0
-45 -46 214 0
45 -46 -214 0
-45 46 -214 0
45 46 214 0
49 -50 215 0
-49 -50 -215 0
49 50 -215 0
-49 50 215 0
204 -205 216 0
-204 -205 -216 0
204 205 -216 0
-204 205 216 0
206 -207 217 0
-206 -207 -217 0
206 207 -217 0
-206 207 217 0
208 -209 218 0
-208 -209 -218 0
208 209 -218 0
-208 209 218 0
210 -211 219 0
-210 -211 -219 0
210 211 -219 0
-210 211 219 0
212 -213 220 0
-212 -213 -220 0
212 213 -220 0
-212 213 220 0
214 -215 221 0
-214 -215 -221 0
214 215 -221 0
-214 215 221 0
216 -217 222 0
-216 -217 -222 0
216 217 -222 0
-216 217 222 0
218 -219 223 0
-218 -219 -223 0
218 219 -223 0
-218 219 223 0
220 -221 224 0
-220 -221 -224 0
220 221 -224 0
-220 221 224 0
-222 -223 224 0
222 -223 -224 0
-222 223 -224 0
222 223 224 0
-2 3 225 0
2 3 -225 0
-2 -3 -225 0
2 -3 225 0
-9 -10 226 0
9 -10 -226 0
-9 10 -226 0
9 10 226 0
-15 -16 227 0
15 -16 -227 0
-15 16 -227 0
15 16 227 0
-17 -18 228 0
17 -18 -228 0
-17 18 -228 0
17 18 228 0
20 23 229 0
-20 23 -229 0
20 -23 -229 0
-20 -23 229 0
27 29 230 0
-27 29 -230 0
27 -29 -230 0
-27 -29 230 0
34 35 231 0
-34 35 -231 0
34 -35 -231 0
-34 -35 231 0
38 -41 232 0
-38 -41 -232 0
38 41 -232 0
-38 41 232 0
44 45 233 0
-44 45 -233 0
44 -45 -233 0
-44 -45 233 0
-47 50 234 0
47 50 -234 0
-47 -50 -234 0
47 -50 234 0
225 -226 235 0
-225 -226 -235 0
225 226 -235 0
-225 226 235 0
227 -228 236 0
-227 -228 -236 0
227 228 -236 0
-227 228 236 0
229 -230 237 0
-229 -230 -237 0
229 230 -237 0
-229 230 237 0
231 -232 238 0
-231 -232 -238 0
231 232 -238 0
-231 232 238 0
233 -234 239 0
-233 -234 -239 0
233 234 -239 0
-233 234 239 0
235 -236 240 0
-235 -236 -240 0
235 236 -240 0
-235 236 240 0
237 -238 241 0
-237 -238 -241 0
237 238 -241 0
-237 238 241 0
-239 -240 241 0
239 -240 -241 0
-239 240 -241 0
239 240 241 0
-2 -8 242 0
2 -8 -242 0
-2 8 -242 0
2 8 242 0
-11 13 243 0
11 13 -243 0
-11 -13 -243 0
11 -13 243 0
-14 18 244 0
14 18 -244 0
-14 -18 -244 0
14 -18 244 0
22 23 245 0
-22 23 -245 0
22 -23 -245 0
-22 -23 245 0
27 -29 246 0
-27 -29 -246 0
27 29 -246 0
-27 29 246 0
30 -31 247 0
-30 -31 -247 0
30 31 -247 0
-30 31 247 0
35 36 248 0
-35 36 -248 0
35 -36 -248 0
-35 -36 248 0
-37 40 249 0
37 40 -249 0
-37 -40 -249 0
37 -40 249 0
41 43 250 0
-41 43 -250 0
41 -43 -250 0
-41 -43 250 0
45 -46 251 0
-45 -46 -251 0
45 46 -251 0
-45 46 251 0
-47 50 252 0
47 50 -252 0
-47 -50 -252 0
47 -50 252 0
242 -243 253 0
-242 -243 -253 0
242 243 -253 0
-242 243 253 0
244 -245 254 0
-244 -245 -254 0
244 245 -254 0
-244 245 254 0
246 -247 255 0
-246 -247 -255 0
246 247 -255 0
-246 247 255 0
248 -249 256 0
-248 -249 -256 0
248 249 -256 0
-248 249 256 0
250 -251 257 0
-250 -251 -257 0
250 251 -257 0
-250 251 257 0
252 -253 258 0
-252 -253 -258 0
252 253 -258 0
-252 253 258 0
254 -255 259 0
-254 -255 -259 0
254 255 -259 0
-254 255 259 0
256 -257 260 0
-256 -257 -260 0
256 257 -260 0
-256 257 260 0
-258 -259 260 0
258 -259 -260 0
-258 259 -260 0
258 259 260 0
-4 5 261 0
4 5 -261 0
-4 -5 -261 0
4 -5 261 0
-6 -8 262 0
6 -8 -262 0
-6 8 -262 0
6 8 262 0
-11 -14 263 0
11 -14 -263 0
-11 14 -263 0
11 14 263 0
18 20 264 0
-18 20 -264 0
18 -20 -264 0
-18 -20 264 0
-22 -23 265 0
22 -23 -265 0
-22 23 -265 0
22 23 265 0
25 26 266 0
-25 26 -266 0
25 -26 -266 0
-25 -26 266 0
-27 30 267 0
27 30 -267 0
-27 -30 -267 0
27 -30 267 0
31 -34 268 0
-31 -34 -268 0
31 34 -268 0
-31 34 268 0
-35 36 269 0
35 36 -269 0
-35 -36 -269 0
35 -36 269 0
-38 -40 270 0
38 -40 -270 0
-38 40 -270 0
38 40 270 0
-43 -46 271 0
43 -46 -271 0
-43 46 -271 0
43 46 271 0
260 -261 272 0
-260 -261 -272 0
260 261 -272 0
-260 261 272 0
262 -263 273 0
-262 -263 -273 0
262 263 -273 0
-262 263 273 0
264 -265 274 0
-264 -265 -274 0
264 265 -274 0
-264 265 274 0
266 -267 275 0
-266 -267 -275 0
266 267 -275 0
-266 267 275 0
268 -269 276 0
-268 -269 -276 0
268 269 -276 0
-268 269 276 0
270 -271 277 0
-270 -271 -277 0
270 271 -277 0
-270 271 277 0
272 -273 278 0
-272 -273 -278 0
272 273 -278 0
-272 273 278 0
274 -275 279 0
-274 -275 -279 0
274 275 -279 0
-274 275 279 0
276 -277 280 0
-276 -277 -280 0
276 277 -280 0
-276 277 280 0
-278 -279 280 0
278 -279 -280 0
-278 279 -280 0
278 279 280 0
-12 281 0
-24 281 0
-12 -24 282 0
-23 281 0
-12 -23 282 0
-24 -23 282 0
-12 -24 -23 283 0
-22 284 0
-21 284 0
-22 -21 285 0
-20 284 0
-22 -20 285 0
-21 -20 285 0
-22 -21 -20 286 0
-281 287 0
-282 288 0
-283 289 0
-284 287 0
-285 288 0
-286 289 0
-281 -284 288 0
-281 -285 289 0
-281 -286 290 0
-282 -284 289 0
-282 -285 290 0
-282 -286 291 0
-283 -284 290 0
-283 -285 291 0
-283 -286 292 0
-19 293 0
-18 293 0
-19 -18 294 0
-17 293 0
-19 -17 294 0
-18 -17 294 0
-19 -18 -17 295 0
-16 296 0
-15 296 0
-16 -15 297 0
-14 296 0
-16 -14 297 0
-15 -14 297 0
-16 -15 -14 298 0
-293 299 0
-294 300 0
-295 301 0
-296 299 0
-297 300 0
-298 301 0
-293 -296 300 0
-293 -297 301 0
-293 -298 302 0
-294 -296 301 0
-294 -297 302 0
-294 -298 303 0
-295 -296 302 0
-295 -297 303 0
-295 -298 304 0
-13 305 0
-25 305 0
-13 -25 306 0
-11 305 0
-13 -11 306 0
-25 -11 306 0
-13 -25 -11 307 0
-10 308 0
-9 308 0
-10 -9 309 0
-8 308 0
-10 -8 309 0
-9 -8 309 0
-10 -9 -8 310 0
-305 311 0
-306 312 0
-307 313 0
-308 311 0
-309 312 0
-310 313 0
-305 -308 312 0
-305 -309 313 0
-305 -310 314 0
-306 -308 313 0
-306 -309 314 0
-306 -310 315 0
-307 -308 314 0
-307 -309 315 0
-307 -310 316 0
-7 317 0
-6 317 0
-7 -6 318 0
-5 317 0
-7 -5 318 0
-6 -5 318 0
-7 -6 -5 319 0
-4 320 0
-3 320 0
-4 -3 321 0
-2 322 0
-1 322 0
-2 -1 323 0
-37 322 0
-2 -37 323 0
-1 -37 323 0
-2 -1 -37 324 0
-320 325 0
-321 326 0
-322 325 0
-323 326 0
-324 327 0
-320 -322 326 0
-320 -323 327 0
-320 -324 328 0
-321 -322 327 0
-321 -323 328 0
-321 -324 329 0
-317 330 0
-318 331 0
-319 332 0
-325 330 0
-326 331 0
-327 332 0
-328 333 0
-329 334 0
-317 -325 331 0
-317 -326 332 0
-317 -327 333 0
-317 -328 334 0
-317 -329 335 0
-318 -325 332 0
-318 -326 333 0
-318 -327 334 0
-318 -328 335 0
-318 -329 336 0
-319 -325 333 0
-319 -326 334 0
-319 -327 335 0
-319 -328 336 0
-319 -329 337 0
-49 338 0
-48 338 0
-49 -48 339 0
-47 338 0
-49 -47 339 0
-48 -47 339 0
-49 -48 -47 340 0
-46 341 0
-45 341 0
-46 -45 342 0
-44 343 0
-43 343 0
-44 -43 344 0
-42 343 0
-44 -42 344 0
-43 -42 344 0
-44 -43 -42 345 0
-341 346 0
-342 347 0
-343 346 0
-344 347 0
-345 348 0
-341 -343 347 0
-341 -344 348 0
-341 -345 349 0
-342 -343 348 0
-342 -344 349 0
-342 -345 350 0
-338 351 0
-339 352 0
-340 353 0
-346 351 0
-347 352 0
-348 353 0
-349 354 0
-350 355 0
-338 -346 352 0
-338 -347 353 0
-338 -348 354 0
-338 -349 355 0
-338 -350 356 0
-339 -346 353 0
-339 -347 354 0
-339 -348 355 0
-339 -349 356 0
-339 -350 357 0
-340 -346 354 0
-340 -347 355 0
-340 -348 356 0
-340 -349 357 0
-340 -350 358 0
-41 359 0
-40 359 0
-41 -40 360 0
-39 359 0
-41 -39 360 0
-40 -39 360 0
-41 -40 -39 361 0
-38 362 0
-50 362 0
-38 -50 363 0
-36 364 0
-35 364 0
-36 -35 365 0
-34 364 0
-36 -34 365 0
-35 -34 365 0
-36 -35 -34 366 0
-362 367 0
-363 368 0
-364 367 0
-365 368 0
-366 369 0
-362 -364 368 0
-362 -365 369 0
-362 -366 370 0
-363 -364 369 0
-363 -365 370 0
-363 -366 371 0
-359 372 0
-360 373 0
-361 374 0
-367 372 0
-368 373 0
-369 374 0
-370 375 0
-371 376 0
-359 -367 373 0
-359 -368 374 0
-359 -369 375 0
-359 -370 376 0
-359 -371 377 0
-360 -367 374 0
-360 -368 375 0
-360 -369 376 0
-360 -370 377 0
-360 -371 378 0
-361 -367 375 0
-361 -368 376 0
-361 -369 377 0
-361 -370 378 0
-361 -371 379 0
-33 380 0
-32 380 0
-33 -32 381 0
-31 380 0
-33 -31 381 0
-32 -31 381 0
-33 -32 -31 382 0
-30 383 0
-29 383 0
-30 -29 384 0
-28 385 0
-27 385 0
-28 -27 386 0
-26 385 0
-28 -26 386 0
-27 -26 386 0
-28 -27 -26 387 0
-383 388 0
-384 389 0
-385 388 0
-386 389 0
-387 390 0
-383 -385 389 0
-383 -386 390 0
-383 -387 391 0
-384 -385 390 0
-384 -386 391 0
-384 -387 392 0
-380 393 0
-381 394 0
-382 395 0
-388 393 0
-389 394 0
-390 395 0
-391 396 0
-392 397 0
-380 -388 394 0
-380 -389 395 0
-380 -390 396 0
-380 -391 397 0
-380 -392 398 0
-381 -388 395 0
-381 -389 396 0
-381 -390 397 0
-381 -391 398 0
-381 -392 399 0
-382 -388 396 0
-382 -389 397 0
-382 -390 398 0
-382 -391 399 0
-382 -392 400 0
-372 401 0
-374 402 0
-376 403 0
-378 404 0
-393 401 0
-395 402 0
-397 403 0
-399 404 0
-372 -393 402 0
-372 -395 403 0
-372 -397 404 0
-372 -399 405 0
-374 -393 403 0
-374 -395 404 0
-374 -397 405 0
-374 -399 406 0
-376 -393 404 0
-376 -395 405 0
-376 -397 406 0
-378 -393 405 0
-378 -395 406 0
-373 407 0
-377 408 0
-394 407 0
-398 408 0
-373 -394 408 0
-373 -398 409 0
-377 -394 409 0
-375 410 0
-379 411 0
-396 410 0
-400 411 0
-375 -396 411 0
-408 412 0
-410 412 0
-408 -410 413 0
-409 414 0
-411 414 0
-409 -411 415 0
-402 416 0
-407 416 0
-402 -407 417 0
-403 418 0
-412 418 0
-403 -412 419 0
-404 420 0
-413 420 0
-404 -413 421 0
-405 422 0
-414 422 0
-405 -414 423 0
-406 424 0
-415 424 0
-406 -415 425 0
-351 426 0
-353 427 0
-355 428 0
-357 429 0
-401 426 0
-417 427 0
-419 428 0
-421 429 0
-423 430 0
-425 431 0
-351 -401 427 0
-351 -417 428 0
-351 -419 429 0
-351 -421 430 0
-351 -423 431 0
-353 -401 428 0
-353 -417 429 0
-353 -419 430 0
-353 -421 431 0
-355 -401 429 0
-355 -417 430 0
-355 -419 431 0
-357 -401 430 0
-357 -417 431 0
-352 432 0
-356 433 0
-416 432 0
-420 433 0
-424 434 0
-352 -416 433 0
-352 -420 434 0
-356 -416 434 0
-354 435 0
-358 436 0
-418 435 0
-422 436 0
-354 -418 436 0
-433 437 0
-435 437 0
-433 -435 438 0
-434 439 0
-436 439 0
-434 -436 440 0
-427 441 0
-432 441 0
-427 -432 442 0
-428 443 0
-437 443 0
-428 -437 444 0
-429 445 0
-438 445 0
-429 -438 446 0
-430 447 0
-439 447 0
-430 -439 448 0
-431 449 0
-440 449 0
-431 -440 450 0
-330 451 0
-332 452 0
-334 453 0
-336 454 0
-426 451 0
-442 452 0
-444 453 0
-446 454 0
-448 455 0
-450 456 0
-330 -426 452 0
-330 -442 453 0
-330 -444 454 0
-330 -446 455 0
-330 -448 456 0
-332 -426 453 0
-332 -442 454 0
-332 -444 455 0
-332 -446 456 0
-334 -426 454 0
-334 -442 455 0
-334 -444 456 0
-336 -426 455 0
-336 -442 456 0
-331 457 0
-335 458 0
-441 457 0
-445 458 0
-449 459 0
-331 -441 458 0
-331 -445 459 0
-335 -441 459 0
-333 460 0
-337 461 0
-443 460 0
-447 461 0
-333 -443 461 0
-458 462 0
-460 462 0
-458 -460 463 0
-459 464 0
-461 464 0
-459 -461 465 0
-452 466 0
-457 466 0
-452 -457 467 0
-453 468 0
-462 468 0
-453 -462 469 0
-454 470 0
-463 470 0
-454 -463 471 0
-455 472 0
-464 472 0
-455 -464 473 0
-456 474 0
-465 474 0
-456 -465 475 0
-311 476 0
-313 477 0
-315 478 0
-451 476 0
-467 477 0
-469 478 0
-471 479 0
-473 480 0
-475 481 0
-311 -451 477 0
-311 -467 478 0
-311 -469 479 0
-311 -471 480 0
-311 -473 481 0
-313 -451 478 0
-313 -467 479 0
-313 -469 480 0
-313 -471 481 0
-315 -451 479 0
-315 -467 480 0
-315 -469 481 0
-312 482 0
-314 483 0
-316 484 0
-466 482 0
-468 483 0
-470 484 0
-472 485 0
-474 486 0
-312 -466 483 0
-312 -468 484 0
-312 -470 485 0
-312 -472 486 0
-314 -466 484 0
-314 -468 485 0
-314 -470 486 0
-316 -466 485 0
-316 -468 486 0
-477 487 0
-482 487 0
-477 -482 488 0
-478 489 0
-483 489 0
-478 -483 490 0
-479 491 0
-484 491 0
-479 -484 492 0
-480 493 0
-485 493 0
-480 -485 494 0
-481 495 0
-486 495 0
-481 -486 496 0
-299 497 0
-301 498 0
-303 499 0
-476 497 0
-488 498 0
-490 499 0
-492 500 0
-494 501 0
-496 502 0
-299 -476 498 0
-299 -488 499 0
-299 -490 500 0
-299 -492 501 0
-299 -494 502 0
-301 -476 499 0
-301 -488 500 0
-301 -490 501 0
-301 -492 502 0
-303 -476 500 0
-303 -488 501 0
-303 -490 502 0
-300 503 0
-302 504 0
-304 505 0
-487 503 0
-489 504 0
-491 505 0
-493 506 0
-495 507 0
-300 -487 504 0
-300 -489 505 0
-300 -491 506 0
-300 -493 507 0
-302 -487 505 0
-302 -489 506 0
-302 -491 507 0
-304 -487 506 0
-304 -489 507 0
-498 508 0
-503 508 0
-498 -503 509 0
-499 510 0
-504 510 0
-499 -504 511 0
-500 512 0
-505 512 0
-500 -505 513 0
-501 514 0
-506 514 0
-501 -506 515 0
-502 516 0
-507 516 0
-502 -507 517 0
-287 518 0
-289 519 0
-291 520 0
-497 518 0
-509 519 0
-511 520 0
-513 521 0
-515 522 0
-517 523 0
-287 -497 519 0
-287 -509 520 0
-287 -511 521 0
-287 -513 522 0
-287 -515 523 0
-289 -497 520 0
-289 -509 521 0
-289 -511 522 0
-289 -513 523 0
-291 -497 521 0
-291 -509 522 0
-291 -511 523 0
-288 524 0
-290 525 0
-292 526 0
-508 524 0
-510 525 0
-512 526 0
-514 527 0
-516 528 0
-288 -508 525 0
-288 -510 526 0
-288 -512 527 0
-288 -514 528 0
-290 -508 526 0
-290 -510 527 0
-290 -512 528 0
-292 -508 527 0
-292 -510 528 0
-519 529 0
-524 529 0
-519 -524 530 0
-520 531 0
-525 531 0
-520 -525 532 0
-521 533 0
-526 533 0
-521 -526 534 0
-522 535 0
-527 535 0
-522 -527 536 0
-523 537 0
-528 537 0
-523 -528 538 0
-538 0
